1005.35,56.32,67.5
1117.46,50.67,60.73
953.35,59.4,71.19
1083.73,52.25,62.62
1042.92,54.3,65.07
1016.73,55.69,66.75
1009.05,56.12,67.26
1167.5,48.5,58.13
1061.44,53.35,63.94
1058.47,53.5,64.12
1143.64,49.51,59.34
952.91,59.42,71.22
943.21,60.03,71.95
1102.83,51.35,61.54
976.14,58.01,69.52
1048.18,54.02,64.75
1125.72,50.3,60.29
1081.0,52.38,62.78
1151.48,49.18,58.94
1091.72,51.87,62.16
